
Gurobi 9.0.1 (linux64) logging started Thu Apr 30 06:05:33 2020

Gurobi Optimizer version 9.0.1 build v9.0.1rc0 (linux64)
Optimize a model with 1994 rows, 2120 columns and 19632 nonzeros
Model fingerprint: 0xc474177d
Variable types: 0 continuous, 2120 integer (2106 binary)
Coefficient statistics:
  Matrix range     [1e+00, 7e+00]
  Objective range  [6e+00, 1e+02]
  Bounds range     [1e+00, 1e+00]
  RHS range        [1e+00, 1e+00]

User MIP start produced solution with objective 557 (0.01s)
Loaded user MIP start with objective 557

Presolve removed 848 rows and 688 columns
Presolve time: 0.12s
Presolved: 1146 rows, 1432 columns, 13828 nonzeros
Variable types: 0 continuous, 1432 integer (1432 binary)

Root relaxation: objective 3.643983e+02, 550 iterations, 0.03 seconds

    Nodes    |    Current Node    |     Objective Bounds      |     Work
 Expl Unexpl |  Obj  Depth IntInf | Incumbent    BestBd   Gap | It/Node Time

     0     0  364.39833    0  251  557.00000  364.39833  34.6%     -    0s
     0     0  389.98448    0  270  557.00000  389.98448  30.0%     -    0s
     0     0  390.82315    0  252  557.00000  390.82315  29.8%     -    0s
     0     0  395.99167    0  282  557.00000  395.99167  28.9%     -    0s
     0     0  396.29330    0  289  557.00000  396.29330  28.9%     -    0s
     0     0  396.31021    0  287  557.00000  396.31021  28.8%     -    0s
     0     0  396.35959    0  286  557.00000  396.35959  28.8%     -    0s
     0     0  396.36688    0  286  557.00000  396.36688  28.8%     -    0s
     0     0  400.10125    0  272  557.00000  400.10125  28.2%     -    0s
     0     0  400.40409    0  273  557.00000  400.40409  28.1%     -    1s
     0     0  400.48260    0  274  557.00000  400.48260  28.1%     -    1s
     0     0  400.51130    0  272  557.00000  400.51130  28.1%     -    1s
     0     0  400.52555    0  275  557.00000  400.52555  28.1%     -    1s
     0     0  403.65535    0  295  557.00000  403.65535  27.5%     -    1s
     0     0  404.05489    0  305  557.00000  404.05489  27.5%     -    1s
     0     0  404.07964    0  299  557.00000  404.07964  27.5%     -    1s
     0     0  404.08174    0  304  557.00000  404.08174  27.5%     -    1s
     0     0  405.59670    0  299  557.00000  405.59670  27.2%     -    1s
     0     0  405.90523    0  304  557.00000  405.90523  27.1%     -    1s
     0     0  405.98784    0  297  557.00000  405.98784  27.1%     -    1s
     0     0  407.01432    0  297  557.00000  407.01432  26.9%     -    1s
     0     0  407.07561    0  305  557.00000  407.07561  26.9%     -    1s
     0     0  407.08179    0  307  557.00000  407.08179  26.9%     -    1s
     0     0  407.36016    0  286  557.00000  407.36016  26.9%     -    1s
     0     0  407.37787    0  305  557.00000  407.37787  26.9%     -    1s
     0     0  408.43778    0  309  557.00000  408.43778  26.7%     -    1s
     0     0  408.47669    0  311  557.00000  408.47669  26.7%     -    1s
     0     0  408.48252    0  313  557.00000  408.48252  26.7%     -    1s
     0     0  408.89360    0  310  557.00000  408.89360  26.6%     -    1s
     0     0  408.89360    0  310  557.00000  408.89360  26.6%     -    1s
     0     0  409.19419    0  309  557.00000  409.19419  26.5%     -    1s
     0     0  409.24085    0  310  557.00000  409.24085  26.5%     -    2s
     0     0  409.24085    0  311  557.00000  409.24085  26.5%     -    2s
     0     0  409.81528    0  312  557.00000  409.81528  26.4%     -    2s
     0     0  409.82398    0  315  557.00000  409.82398  26.4%     -    2s
     0     0  409.99306    0  308  557.00000  409.99306  26.4%     -    2s
     0     0  409.99306    0  297  557.00000  409.99306  26.4%     -    2s
     0     0  410.17787    0  242  557.00000  410.17787  26.4%     -    2s
     0     0  410.17787    0  274  557.00000  410.17787  26.4%     -    2s
     0     0  410.17787    0  279  557.00000  410.17787  26.4%     -    2s
     0     0  410.36399    0  286  557.00000  410.36399  26.3%     -    2s
     0     0  411.21016    0  283  557.00000  411.21016  26.2%     -    2s
     0     0  411.25086    0  287  557.00000  411.25086  26.2%     -    2s
     0     0  411.27393    0  284  557.00000  411.27393  26.2%     -    2s
     0     0  411.73497    0  282  557.00000  411.73497  26.1%     -    2s
H    0     0                     533.0000000  411.73497  22.8%     -    2s
     0     0  411.76391    0  301  533.00000  411.76391  22.7%     -    2s
     0     0  413.56133    0  303  533.00000  413.56133  22.4%     -    3s
     0     0  413.92965    0  291  533.00000  413.92965  22.3%     -    3s
     0     0  414.03061    0  309  533.00000  414.03061  22.3%     -    3s
     0     0  414.03983    0  302  533.00000  414.03983  22.3%     -    3s
     0     0  414.75277    0  300  533.00000  414.75277  22.2%     -    3s
H    0     0                     500.0000000  414.75277  17.0%     -    3s
     0     0  414.97973    0  299  500.00000  414.97973  17.0%     -    3s
     0     0  415.11085    0  305  500.00000  415.11085  17.0%     -    3s
     0     0  415.13494    0  309  500.00000  415.13494  17.0%     -    3s
     0     0  415.15925    0  318  500.00000  415.15925  17.0%     -    3s
     0     0  415.15925    0  303  500.00000  415.15925  17.0%     -    3s
H    0     0                     483.0000000  415.15925  14.0%     -    3s
     0     2  415.20475    0  303  483.00000  415.20475  14.0%     -    3s
*  135    67              25     472.0000000  432.11389  8.45%  50.8    4s
   151    65  468.66870    8  214  472.00000  432.53070  8.36%  47.6    5s
H  219    47                     468.0000000  440.04930  5.97%  40.6    5s
H  247    35                     461.0000000  440.04930  4.54%  40.8    5s

Cutting planes:
  Gomory: 3
  Cover: 1
  MIR: 25
  GUB cover: 2
  Inf proof: 1
  Zero half: 49
  RLT: 10

Explored 409 nodes (21931 simplex iterations) in 6.15 seconds
Thread count was 1 (of 40 available processors)

Solution count 7: 461 468 472 ... 557

Optimal solution found (tolerance 1.00e-04)
Best objective 4.610000000000e+02, best bound 4.610000000000e+02, gap 0.0000%

User-callback calls 2733, time in user-callback 0.00 sec
